solution status: time limit reached
objective value:                                 -245
x7                                                  1 	(obj:-1)
x15                                                 1 	(obj:-1)
x49                                                 1 	(obj:-1)
x58                                                 1 	(obj:-1)
x86                                                 1 	(obj:-1)
x134                                                1 	(obj:-1)
x179                                                1 	(obj:-1)
x249                                                1 	(obj:-1)
x265                                                1 	(obj:-1)
x289                                                1 	(obj:-1)
x318                                                1 	(obj:-1)
x337                                                1 	(obj:-1)
x396                                                1 	(obj:-1)
x449                                                1 	(obj:-1)
x485                                                1 	(obj:-1)
x489                                                1 	(obj:-1)
x538                                                1 	(obj:-1)
x565                                                1 	(obj:-1)
x619                                                1 	(obj:-1)
x660                                                1 	(obj:-1)
x708                                                1 	(obj:-1)
x722                                                1 	(obj:-1)
x756                                                1 	(obj:-1)
x776                                                1 	(obj:-1)
x818                                                1 	(obj:-1)
x860                                                1 	(obj:-1)
x910                                                1 	(obj:-1)
x920                                                1 	(obj:-1)
x966                                                1 	(obj:-1)
x1028                                               1 	(obj:-1)
x1071                                               1 	(obj:-1)
x1077                                               1 	(obj:-1)
x1149                                               1 	(obj:-1)
x1155                                               1 	(obj:-1)
x1180                                               1 	(obj:-1)
x1260                                               1 	(obj:-1)
x1304                                               1 	(obj:-1)
x1391                                               1 	(obj:-1)
x1402                                               1 	(obj:-1)
x1445                                               1 	(obj:-1)
x1563                                               1 	(obj:-1)
x1637                                               1 	(obj:-1)
x1681                                               1 	(obj:-1)
x1762                                               1 	(obj:-1)
x1790                                               1 	(obj:-1)
x1875                                               1 	(obj:-1)
x1950                                               1 	(obj:-1)
x1974                                               1 	(obj:-1)
x1993                                               1 	(obj:-1)
x2036                                               1 	(obj:-1)
x2053                                               1 	(obj:-1)
x2154                                               1 	(obj:-1)
x2180                                               1 	(obj:-1)
x2209                                               1 	(obj:-1)
x2226                                               1 	(obj:-1)
x2235                                               1 	(obj:-1)
x2322                                               1 	(obj:-1)
x2328                                               1 	(obj:-1)
x2379                                               1 	(obj:-1)
x2387                                               1 	(obj:-1)
x2410                                               1 	(obj:-1)
x2423                                               1 	(obj:-1)
x2449                                               1 	(obj:-1)
x2520                                               1 	(obj:-1)
x2524                                               1 	(obj:-1)
x2694                                               1 	(obj:-1)
x2747                                               1 	(obj:-1)
x2772                                               1 	(obj:-1)
x2839                                               1 	(obj:-1)
x2868                                               1 	(obj:-1)
x2881                                               1 	(obj:-1)
x2952                                               1 	(obj:-1)
x3001                                               1 	(obj:-1)
x3011                                               1 	(obj:-1)
x3062                                               1 	(obj:-1)
x3084                                               1 	(obj:-1)
x3161                                               1 	(obj:-1)
x3186                                               1 	(obj:-1)
x3231                                               1 	(obj:-1)
x3235                                               1 	(obj:-1)
x3256                                               1 	(obj:-1)
x3311                                               1 	(obj:-1)
x3320                                               1 	(obj:-1)
x3331                                               1 	(obj:-1)
x3416                                               1 	(obj:-1)
x3427                                               1 	(obj:-1)
x3570                                               1 	(obj:-1)
x3581                                               1 	(obj:-1)
x3599                                               1 	(obj:-1)
x3609                                               1 	(obj:-1)
x3614                                               1 	(obj:-1)
x3653                                               1 	(obj:-1)
x3790                                               1 	(obj:-1)
x3873                                               1 	(obj:-1)
x3885                                               1 	(obj:-1)
x3912                                               1 	(obj:-1)
x3964                                               1 	(obj:-1)
x4093                                               1 	(obj:-1)
x4110                                               1 	(obj:-1)
x4138                                               1 	(obj:-1)
x4244                                               1 	(obj:-1)
x4278                                               1 	(obj:-1)
x4376                                               1 	(obj:-1)
x4389                                               1 	(obj:-1)
x4465                                               1 	(obj:-1)
x4505                                               1 	(obj:-1)
x4509                                               1 	(obj:-1)
x4664                                               1 	(obj:-1)
x4669                                               1 	(obj:-1)
x4695                                               1 	(obj:-1)
x4699                                               1 	(obj:-1)
x4822                                               1 	(obj:-1)
x4840                                               1 	(obj:-1)
x4873                                               1 	(obj:-1)
x4894                                               1 	(obj:-1)
x5045                                               1 	(obj:-1)
x5090                                               1 	(obj:-1)
x5104                                               1 	(obj:-1)
x5123                                               1 	(obj:-1)
x5224                                               1 	(obj:-1)
x5230                                               1 	(obj:-1)
x5349                                               1 	(obj:-1)
x5361                                               1 	(obj:-1)
x5390                                               1 	(obj:-1)
x5465                                               1 	(obj:-1)
x5555                                               1 	(obj:-1)
x5590                                               1 	(obj:-1)
x5625                                               1 	(obj:-1)
x5659                                               1 	(obj:-1)
x5711                                               1 	(obj:-1)
x5755                                               1 	(obj:-1)
x5784                                               1 	(obj:-1)
x5791                                               1 	(obj:-1)
x5845                                               1 	(obj:-1)
x5955                                               1 	(obj:-1)
x6026                                               1 	(obj:-1)
x6032                                               1 	(obj:-1)
x6144                                               1 	(obj:-1)
x6198                                               1 	(obj:-1)
x6273                                               1 	(obj:-1)
x6315                                               1 	(obj:-1)
x6429                                               1 	(obj:-1)
x6485                                               1 	(obj:-1)
x6526                                               1 	(obj:-1)
x6596                                               1 	(obj:-1)
x6605                                               1 	(obj:-1)
x6674                                               1 	(obj:-1)
x6736                                               1 	(obj:-1)
x6750                                               1 	(obj:-1)
x6823                                               1 	(obj:-1)
x6861                                               1 	(obj:-1)
x6931                                               1 	(obj:-1)
x6950                                               1 	(obj:-1)
x6975                                               1 	(obj:-1)
x7073                                               1 	(obj:-1)
x7135                                               1 	(obj:-1)
x7156                                               1 	(obj:-1)
x7410                                               1 	(obj:-1)
x7415                                               1 	(obj:-1)
x7465                                               1 	(obj:-1)
x7490                                               1 	(obj:-1)
x7519                                               1 	(obj:-1)
x7613                                               1 	(obj:-1)
x7652                                               1 	(obj:-1)
x7769                                               1 	(obj:-1)
x7843                                               1 	(obj:-1)
x7860                                               1 	(obj:-1)
x7928                                               1 	(obj:-1)
x7952                                               1 	(obj:-1)
x7961                                               1 	(obj:-1)
x8034                                               1 	(obj:-1)
x8107                                               1 	(obj:-1)
x8206                                               1 	(obj:-1)
x8212                                               1 	(obj:-1)
x8241                                               1 	(obj:-1)
x8260                                               1 	(obj:-1)
x8279                                               1 	(obj:-1)
x8297                                               1 	(obj:-1)
x8330                                               1 	(obj:-1)
x8355                                               1 	(obj:-1)
x8434                                               1 	(obj:-1)
x8498                                               1 	(obj:-1)
x8506                                               1 	(obj:-1)
x8552                                               1 	(obj:-1)
x8634                                               1 	(obj:-1)
x8687                                               1 	(obj:-1)
x8753                                               1 	(obj:-1)
x8872                                               1 	(obj:-1)
x8906                                               1 	(obj:-1)
x8913                                               1 	(obj:-1)
x8992                                               1 	(obj:-1)
x9022                                               1 	(obj:-1)
x9066                                               1 	(obj:-1)
x9077                                               1 	(obj:-1)
x9159                                               1 	(obj:-1)
x9163                                               1 	(obj:-1)
x9242                                               1 	(obj:-1)
x9293                                               1 	(obj:-1)
x9451                                               1 	(obj:-1)
x9461                                               1 	(obj:-1)
x9504                                               1 	(obj:-1)
x9537                                               1 	(obj:-1)
x9568                                               1 	(obj:-1)
x9672                                               1 	(obj:-1)
x9688                                               1 	(obj:-1)
x9711                                               1 	(obj:-1)
x9737                                               1 	(obj:-1)
x9760                                               1 	(obj:-1)
x9847                                               1 	(obj:-1)
x9853                                               1 	(obj:-1)
x10003                                              1 	(obj:-1)
x10043                                              1 	(obj:-1)
x10094                                              1 	(obj:-1)
x10196                                              1 	(obj:-1)
x10224                                              1 	(obj:-1)
x10318                                              1 	(obj:-1)
x10329                                              1 	(obj:-1)
x10365                                              1 	(obj:-1)
x10372                                              1 	(obj:-1)
x10377                                              1 	(obj:-1)
x10541                                              1 	(obj:-1)
x10569                                              1 	(obj:-1)
x10590                                              1 	(obj:-1)
x10628                                              1 	(obj:-1)
x10746                                              1 	(obj:-1)
x10776                                              1 	(obj:-1)
x10887                                              1 	(obj:-1)
x10974                                              1 	(obj:-1)
x11018                                              1 	(obj:-1)
x11086                                              1 	(obj:-1)
x11154                                              1 	(obj:-1)
x11163                                              1 	(obj:-1)
x11235                                              1 	(obj:-1)
x11252                                              1 	(obj:-1)
x11357                                              1 	(obj:-1)
x11380                                              1 	(obj:-1)
x11415                                              1 	(obj:-1)
x11484                                              1 	(obj:-1)
x11534                                              1 	(obj:-1)
x11559                                              1 	(obj:-1)
x11638                                              1 	(obj:-1)
x11658                                              1 	(obj:-1)
x11713                                              1 	(obj:-1)
x11771                                              1 	(obj:-1)
x11796                                              1 	(obj:-1)
